Gurobi Optimizer version 9.1.2 build v9.1.2rc0 (linux64)
Thread count: 36 physical cores, 72 logical processors, using up to 32 threads
Optimize a model with 12 rows, 57 columns and 590 nonzeros
Model fingerprint: 0xf32eec78
Model has 47 quadratic constraints
Coefficient statistics:
  Matrix range     [2e-05, 3e+00]
  QMatrix range    [1e+00, 1e+00]
  QLMatrix range   [1e+00, 1e+00]
  Objective range  [8e-03, 7e-01]
  Bounds range     [1e+00, 1e+00]
  RHS range        [1e+00, 1e+00]
Presolve removed 9 rows and 0 columns

Continuous model is non-convex -- solving as a MIP.

Presolve removed 9 rows and 0 columns
Presolve time: 0.00s
Presolved: 189 rows, 57 columns, 443 nonzeros
Presolved model has 47 bilinear constraint(s)
Variable types: 57 continuous, 0 integer (0 binary)

Root relaxation: objective -1.743721e+00, 44 iterations, 0.00 seconds

    Nodes    |    Current Node    |     Objective Bounds      |     Work
 Expl Unexpl |  Obj  Depth IntInf | Incumbent    BestBd   Gap | It/Node Time

     0     0   -1.74372    0   38          -   -1.74372      -     -    0s
H    0     0                       0.6147548   -1.74372   384%     -    0s
     0     0   -1.64739    0    1    0.61475   -1.64739   368%     -    0s
H    0     0                      -1.6450460   -1.64739  0.14%     -    0s
     0     0     cutoff    0        -1.64505   -1.64505  0.00%     -    0s

Cutting planes:
  RLT: 25
  BQP: 3

Explored 1 nodes (76 simplex iterations) in 0.01 seconds
Thread count was 32 (of 72 available processors)

Solution count 2: -1.64505 0.614755 
No other solutions better than -1.64505

Optimal solution found (tolerance 1.00e-04)
Best objective -1.645045978473e+00, best bound -1.645045978473e+00, gap 0.0000%

User-callback calls 78, time in user-callback 0.00 sec
Gurobi Optimizer version 9.1.2 build v9.1.2rc0 (linux64)
Thread count: 36 physical cores, 72 logical processors, using up to 32 threads
Optimize a model with 24 rows, 120 columns and 2480 nonzeros
Model fingerprint: 0x21bfd2e6
Model has 100 quadratic constraints
Coefficient statistics:
  Matrix range     [8e-06, 4e+00]
  QMatrix range    [1e+00, 1e+00]
  QLMatrix range   [1e+00, 1e+00]
  Objective range  [5e-03, 1e+00]
  Bounds range     [1e+00, 1e+00]
  RHS range        [1e+00, 1e+00]
Presolve removed 16 rows and 0 columns

Continuous model is non-convex -- solving as a MIP.

Presolve removed 16 rows and 0 columns
Presolve time: 0.00s
Presolved: 408 rows, 120 columns, 1351 nonzeros
Presolved model has 100 bilinear constraint(s)
Variable types: 120 continuous, 0 integer (0 binary)

Root relaxation: objective -7.308682e+00, 127 iterations, 0.00 seconds

    Nodes    |    Current Node    |     Objective Bounds      |     Work
 Expl Unexpl |  Obj  Depth IntInf | Incumbent    BestBd   Gap | It/Node Time

     0     0   -7.30868    0   93          -   -7.30868      -     -    0s
H    0     0                       2.1412826   -7.30868   441%     -    0s
     0     0   -5.07845    0  100    2.14128   -5.07845   337%     -    0s
H    0     0                       0.2453359   -5.07845  2170%     -    0s
     0     0   -5.07662    0  100    0.24534   -5.07662  2169%     -    0s
     0     0   -4.50425    0   90    0.24534   -4.50425  1936%     -    0s
H    0     0                      -0.6155918   -4.50425   632%     -    0s
     0     0   -4.46475    0   90   -0.61559   -4.46475   625%     -    0s
     0     0   -4.32242    0  100   -0.61559   -4.32242   602%     -    0s
H    0     0                      -1.1164314   -4.32242   287%     -    0s
     0     0   -4.31845    0  100   -1.11643   -4.31845   287%     -    0s
     0     0   -4.27950    0  100   -1.11643   -4.27950   283%     -    0s
     0     0   -4.27897    0  100   -1.11643   -4.27897   283%     -    0s
     0     0   -4.26605    0  100   -1.11643   -4.26605   282%     -    0s
     0     0   -4.26596    0  100   -1.11643   -4.26596   282%     -    0s
     0     0   -4.26264    0  100   -1.11643   -4.26264   282%     -    0s
     0     0   -4.26214    0  100   -1.11643   -4.26214   282%     -    0s
     0     0   -4.26166    0  100   -1.11643   -4.26166   282%     -    0s
H    0     0                      -3.1733051   -4.26166  34.3%     -    0s
H    0     0                      -3.3264136   -4.26166  28.1%     -    0s
H    0     0                      -3.3709112   -4.26166  26.4%     -    0s
H    0     0                      -3.3715925   -4.26166  26.4%     -    0s
     0     2   -4.26166    0  100   -3.37159   -4.26166  26.4%     -    0s
*  605   326              20      -3.3723374   -3.84476  14.0%  32.2    0s
*  623   326              21      -3.3886378   -3.84476  13.5%  31.4    0s
*  761   394              22      -3.3892219   -3.82859  13.0%  28.8    0s
*  762   394              22      -3.3892497   -3.82859  13.0%  28.8    0s
*  803   394              22      -3.3960373   -3.82859  12.7%  28.0    0s
*  902   486              26      -3.3972419   -3.82859  12.7%  26.1    0s
*  917   486              30      -3.4242330   -3.82859  11.8%  26.2    0s
*  919   486              31      -3.4322327   -3.82859  11.5%  26.2    0s
*  930   486              31      -3.4528368   -3.82859  10.9%  25.9    0s
* 1132   566              32      -3.4528378   -3.81667  10.5%  23.3    0s
* 1393   730              27      -3.5585168   -3.79295  6.59%  21.4    0s
* 1498   730              26      -3.5917353   -3.79295  5.60%  20.6    0s
* 1651   766              26      -3.5931982   -3.65571  1.74%  19.7    0s
* 1652   766              26      -3.5931994   -3.65571  1.74%  19.7    0s
* 1853   940              22      -3.6207171   -3.65571  0.97%  18.2    0s
* 1854   940              22      -3.6207188   -3.65571  0.97%  18.2    0s
* 1856   940              22      -3.6207396   -3.65571  0.97%  18.2    0s
* 1857   940              22      -3.6207433   -3.65571  0.97%  18.2    0s
* 2099   940              29      -3.6266854   -3.65571  0.80%  16.9    0s
* 2100   940              29      -3.6266989   -3.65571  0.80%  16.9    0s
* 2103   940              30      -3.6303018   -3.65571  0.70%  16.9    0s
* 2255   920              24      -3.6313895   -3.64196  0.29%  16.0    0s
* 2344   920              22      -3.6313950   -3.64024  0.24%  15.6    0s
* 2345   920              22      -3.6313950   -3.64024  0.24%  15.6    0s
* 2368   920              21      -3.6366017   -3.64024  0.10%  15.5    0s
* 2372   920              24      -3.6368758   -3.64024  0.09%  15.5    0s
* 2457   920              19      -3.6369154   -3.64024  0.09%  15.1    0s
* 2707   390              21      -3.6374085   -3.63802  0.02%  13.9    0s
* 2708   390              21      -3.6374133   -3.63802  0.02%  13.9    0s
* 2745   390              26      -3.6374211   -3.63769  0.01%  13.8    0s
* 2749   390              25      -3.6374386   -3.63769  0.01%  13.8    0s

Cutting planes:
  RLT: 70
  BQP: 14
  PSD: 12

Explored 3229 nodes (38337 simplex iterations) in 0.70 seconds
Thread count was 32 (of 72 available processors)

Solution count 10: -3.63744 -3.63742 -3.63741 ... -3.6303

Optimal solution found (tolerance 1.00e-04)
Best objective -3.637438587298e+00, best bound -3.637694590199e+00, gap 0.0070%

User-callback calls 6779, time in user-callback 0.00 sec



objective value: -3.6374385872982478
objective bound: -3.637694590199045
x_opt: [0.0, 1.0, 1.0, 0.0, 1.0, 0.3060826934444419, 0.0006876465906053037, 0.0, 1.0, 0.3728531656404171, 0.0, 0.001265307879409037, 0.0, 1.0, 0.0, 0.8379897318863254, 1.0, 0.9568871995151796, 0.0, 1.0]
GUROBI solution time: 0.7008121013641357




